files/upTests/tupley10/0001.eprime
language ESSENCE' 1.0

find pain_tuple1_tuple1: matrix indexed by [int(1..2), int(2..3)] of int(1, 2)
find pain_tuple1_tuple2: matrix indexed by [int(1..2), int(2..3)] of int(4, 5)
find pain_tuple2: matrix indexed by [int(1..2), int(2..3)] of int(8..9)
such that
    pain_tuple1_tuple1[1, 2] = 1,
    pain_tuple1_tuple1[1, 3] = 2,
    pain_tuple1_tuple2[1, 2] = 4,
    pain_tuple2[1, 3] = 8
