files/upTests/tupley10/0001.eprime.solution
language ESSENCE' 1.0
$ minion Nodes: 9
$ minion TotalTime: 0.000703
$ Savile Row TotalTime: 0.302
letting pain_tuple2 be [[8, 8;int(2..3)], 
[8, 8;int(2..3)];int(1..2)]
letting pain_tuple1_tuple1 be [[1, 2;int(2..3)], 
[1, 1;int(2..3)];int(1..2)]
letting pain_tuple1_tuple2 be [[4, 4;int(2..3)], 
[4, 4;int(2..3)];int(1..2)]
